Test: chnl11_12.cnf
Options: -print-activity -no-inverting-opt -activity-look-freq=1
WARNING: for repeatability, setting FPU to use double precision
============================[ Problem Statistics ]=============================
|                                                                             |
|  Number of symmetries:           43                                         |
|  Number of invertingSyms:         0                                         |
|  Number of variables:           264                                         |
|  Number of clauses:            1476                                         |
|  Parse time:                   0.00 s                                       |
|                                                                             |
============================[ Search Statistics ]==============================
| Conflicts |          ORIGINAL         |          LEARNT          | Progress |
|           |    Vars  Clauses Literals |    Limit  Clauses Lit/Cl |          |
===============================================================================
ActiveSyms: 43
ActiveSyms: 40
ActiveSyms: 40
ActiveSyms: 40
ActiveSyms: 40
ActiveSyms: 40
ActiveSyms: 38
ActiveSyms: 38
ActiveSyms: 38
ActiveSyms: 38
ActiveSyms: 38
ActiveSyms: 38
ActiveSyms: 38
ActiveSyms: 38
ActiveSyms: 38
ActiveSyms: 37
ActiveSyms: 35
ActiveSyms: 35
ActiveSyms: 35
ActiveSyms: 35
ActiveSyms: 35
ActiveSyms: 35
ActiveSyms: 35
ActiveSyms: 35
ActiveSyms: 36
ActiveSyms: 34
ActiveSyms: 34
ActiveSyms: 34
ActiveSyms: 34
ActiveSyms: 34
ActiveSyms: 34
ActiveSyms: 34
ActiveSyms: 33
ActiveSyms: 31
ActiveSyms: 31
ActiveSyms: 31
ActiveSyms: 31
ActiveSyms: 31
ActiveSyms: 31
ActiveSyms: 30
ActiveSyms: 28
ActiveSyms: 28
ActiveSyms: 28
ActiveSyms: 28
ActiveSyms: 28
ActiveSyms: 28
ActiveSyms: 27
ActiveSyms: 27
ActiveSyms: 26
ActiveSyms: 26
ActiveSyms: 25
ActiveSyms: 24
ActiveSyms: 24
ActiveSyms: 24
ActiveSyms: 23
ActiveSyms: 22
ActiveSyms: 22
ActiveSyms: 22
ActiveSyms: 21
ActiveSyms: 21
ActiveSyms: 20
ActiveSyms: 20
ActiveSyms: 20
ActiveSyms: 21
ActiveSyms: 20
ActiveSyms: 21
ActiveSyms: 21
ActiveSyms: 22
ActiveSyms: 23
ActiveSyms: 25
ActiveSyms: 28
ActiveSyms: 30
ActiveSyms: 33
ActiveSyms: 36
ActiveSyms: 37
ActiveSyms: 43
===============================================================================
restarts              : 1
conflicts             : 13             (inf /sec)
symconflicts          : 5              (inf /sec)
decisions             : 63             (0.00 % random) (inf /sec)
propagations          : 914            (inf /sec)
sympropagations       : 119            (inf /sec)
conflict literals     : 281            (0.00 % deleted)
literals     : 281            (0.00 % deleted)

HEURISTIC USAGES
random                : 0           
activity w/ lookahead : 63          
activity no lookahead : 0           
original sp           : 0           
sym count             : 0           

Memory used           : 5.00 MB
CPU time              : 0 s

UNSATISFIABLE
